c User generated cnf file
p cnf 11 47
10 3 -3 0 
11 -11 2 0 
10 1 -11 0 
9 -10 10 0 
5 -7 7 0 
1 -6 2 0 
6 4 -9 0 
10 2 -7 0 
1 6 -3 0 
5 -1 4 0 
5 3 -10 0 
1 -3 10 0 
5 -6 1 0 
5 -11 7 0 
3 -7 10 0 
5 -9 9 0 
3 -11 11 0 
3 7 -10 0 
10 -8 11 0 
9 -1 4 0 
7 1 -8 0 
7 -11 11 0 
2 9 -5 0 
4 -3 11 0 
5 -9 11 0 
5 -4 6 0 
6 -8 11 0 
4 9 -4 0 
2 -11 6 0 
3 -10 10 0 
2 -3 7 0 
1 6 -4 0 
8 6 -7 0 
1 -6 2 0 
6 -11 10 0 
5 8 -10 0 
1 -6 9 0 
7 1 -5 0 
1 2 -11 0 
11 -6 1 0 
3 -2 4 0 
5 -1 6 0 
4 2 -1 0 
6 2 -11 0 
11 7 -4 0 
11 -6 4 0 
8 -8 4 0 
